90
29
49
78
9
58
33
85
8
48
74
40
77
10
15
94
14
36
6
2
51
61
19
67
59
95
65
11
57
98
17
72
60
80
75
7
64
92
25
86
20
56
88
23
69
53
35
52
50
54
13
82
26
87
21
39
68
97
89
1
18
46
76
34
12
5
41
71
30
22
66
16
55
91
84
47
31
38
4
70
93
63
99
3
96
62
27
43
44
24
37
0
42
79
83
81
45
73
28
32
